words_hard_train/7704.qaiger
aag 198 24 0 1 174
2
4
12
14
18
22
26
30
34
44
52
68
84
100
116
132
154
164
200
234
268
302
336
366
397
6 2 4
8 3 5
10 7 9
16 13 15
20 16 19
24 20 23
28 24 27
32 28 31
36 32 35
38 10 37
40 11 36
42 39 41
46 44 14
48 12 14
50 49 17
54 51 53
56 50 52
58 55 57
60 46 58
62 61 57
64 17 18
66 65 21
70 67 69
72 66 68
74 71 73
76 63 74
78 77 73
80 21 22
82 81 25
86 83 85
88 82 84
90 87 89
92 79 90
94 93 89
96 25 26
98 97 29
102 99 101
104 98 100
106 103 105
108 95 106
110 109 105
112 29 30
114 113 33
118 115 117
120 114 116
122 119 121
124 111 122
126 125 121
128 33 34
130 129 37
134 131 133
136 130 132
138 135 137
140 127 138
142 141 137
144 43 143
146 42 142
148 145 147
150 45 15
152 151 47
156 5 155
158 4 154
160 157 159
162 153 160
166 35 165
168 34 164
170 167 169
172 159 171
174 158 170
176 173 175
178 163 177
180 47 59
182 181 61
184 179 183
186 162 176
188 185 187
190 161 177
192 188 191
194 62 75
196 195 77
198 175 169
202 31 201
204 30 200
206 203 205
208 198 207
210 199 206
212 209 211
214 191 212
216 190 213
218 215 217
220 196 218
222 193 221
224 197 219
226 223 225
228 78 91
230 229 93
232 211 205
236 27 235
238 26 234
240 237 239
242 232 241
244 233 240
246 243 245
248 217 246
250 216 247
252 249 251
254 230 252
256 227 255
258 231 253
260 257 259
262 94 107
264 263 109
266 245 239
270 23 269
272 22 268
274 271 273
276 266 275
278 267 274
280 277 279
282 251 280
284 250 281
286 283 285
288 264 286
290 261 289
292 265 287
294 291 293
296 110 123
298 297 125
300 279 273
304 19 303
306 18 302
308 305 307
310 300 309
312 301 308
314 311 313
316 285 314
318 284 315
320 317 319
322 298 320
324 295 323
326 299 321
328 325 327
330 126 139
332 331 141
334 313 307
338 13 337
340 12 336
342 339 341
344 334 343
346 335 342
348 345 347
350 319 348
352 318 349
354 351 353
356 332 354
358 329 357
360 333 355
362 359 361
364 148 362
368 14 366
370 15 367
372 369 371
374 347 341
376 372 375
378 373 374
380 377 379
382 380 352
384 364 383
386 381 353
388 387 365
390 385 389
392 149 363
394 392 383
396 391 395
i0 1 x1[7]
i1 1 x2[0]
i2 1 x2[6]
i3 1 x2[7]
i4 1 x2[5]
i5 1 x2[4]
i6 1 x2[3]
i7 1 x2[2]
i8 1 x2[1]
i9 1 x1[0]
i10 1 x1[1]
i11 1 x1[2]
i12 1 x1[3]
i13 1 x1[4]
i14 1 x1[5]
i15 1 x1[6]
i16 2 y2[0]
i17 2 y2[1]
i18 2 y2[2]
i19 2 y2[3]
i20 2 y2[4]
i21 2 y2[5]
i22 2 y2[6]
i23 2 y2[7]
o0 bv[0]
c
simplified
  <
    subtract
      1 x1
      reverse
        1 x2
    add
      1 x2
      2 y2
