words_hard_train/7704.qaiger.qdimacs
p cnf 198 523
a 1 2 34 58 66 6 7 9 42 11 13 15 17 50 22 26 0
e 3 4 5 8 10 12 14 16 18 19 20 21 23 24 25 27 28 29 30 31 32 33 35 36 37 38 39 40 41 43 44 45 46 47 48 49 51 52 53 54 55 56 57 59 60 61 62 63 64 65 67 68 69 70 71 72 73 74 75 76 77 78 79 80 81 82 83 84 85 86 87 88 89 90 91 92 93 94 95 96 97 98 99 100 101 102 103 104 105 106 107 108 109 110 111 112 113 114 115 116 117 118 119 120 121 122 123 124 125 126 127 128 129 130 131 132 133 134 135 136 137 138 139 140 141 142 143 144 145 146 147 148 149 150 151 152 153 154 155 156 157 158 159 160 161 162 163 164 165 166 167 168 169 170 171 172 173 174 175 176 177 178 179 180 181 182 183 184 185 186 187 188 189 190 191 192 193 194 195 196 197 198 0
-1 -2 3 0
1 -3 0
2 -3 0
1 2 4 0
-1 -4 0
-2 -4 0
3 4 5 0
-3 -5 0
-4 -5 0
6 7 8 0
-6 -8 0
-7 -8 0
-8 9 10 0
8 -10 0
-9 -10 0
-10 11 12 0
10 -12 0
-11 -12 0
-12 13 14 0
12 -14 0
-13 -14 0
-14 15 16 0
14 -16 0
-15 -16 0
-16 17 18 0
16 -18 0
-17 -18 0
-5 18 19 0
5 -19 0
-18 -19 0
5 -18 20 0
-5 -20 0
18 -20 0
19 20 21 0
-19 -21 0
-20 -21 0
-22 -7 23 0
22 -23 0
7 -23 0
-6 -7 24 0
6 -24 0
7 -24 0
24 8 25 0
-24 -25 0
-8 -25 0
25 26 27 0
-25 -27 0
-26 -27 0
-25 -26 28 0
25 -28 0
26 -28 0
27 28 29 0
-27 -29 0
-28 -29 0
-23 -29 30 0
23 -30 0
29 -30 0
30 28 31 0
-30 -31 0
-28 -31 0
8 -9 32 0
-8 -32 0
9 -32 0
32 10 33 0
-32 -33 0
-10 -33 0
33 34 35 0
-33 -35 0
-34 -35 0
-33 -34 36 0
33 -36 0
34 -36 0
35 36 37 0
-35 -37 0
-36 -37 0
31 -37 38 0
-31 -38 0
37 -38 0
38 36 39 0
-38 -39 0
-36 -39 0
10 -11 40 0
-10 -40 0
11 -40 0
40 12 41 0
-40 -41 0
-12 -41 0
41 42 43 0
-41 -43 0
-42 -43 0
-41 -42 44 0
41 -44 0
42 -44 0
43 44 45 0
-43 -45 0
-44 -45 0
39 -45 46 0
-39 -46 0
45 -46 0
46 44 47 0
-46 -47 0
-44 -47 0
12 -13 48 0
-12 -48 0
13 -48 0
48 14 49 0
-48 -49 0
-14 -49 0
49 50 51 0
-49 -51 0
-50 -51 0
-49 -50 52 0
49 -52 0
50 -52 0
51 52 53 0
-51 -53 0
-52 -53 0
47 -53 54 0
-47 -54 0
53 -54 0
54 52 55 0
-54 -55 0
-52 -55 0
14 -15 56 0
-14 -56 0
15 -56 0
56 16 57 0
-56 -57 0
-16 -57 0
57 58 59 0
-57 -59 0
-58 -59 0
-57 -58 60 0
57 -60 0
58 -60 0
59 60 61 0
-59 -61 0
-60 -61 0
55 -61 62 0
-55 -62 0
61 -62 0
62 60 63 0
-62 -63 0
-60 -63 0
16 -17 64 0
-16 -64 0
17 -64 0
64 18 65 0
-64 -65 0
-18 -65 0
65 66 67 0
-65 -67 0
-66 -67 0
-65 -66 68 0
65 -68 0
66 -68 0
67 68 69 0
-67 -69 0
-68 -69 0
63 -69 70 0
-63 -70 0
69 -70 0
70 68 71 0
-70 -71 0
-68 -71 0
21 71 72 0
-21 -72 0
-71 -72 0
-21 -71 73 0
21 -73 0
71 -73 0
72 73 74 0
-72 -74 0
-73 -74 0
22 7 75 0
-22 -75 0
-7 -75 0
75 23 76 0
-75 -76 0
-23 -76 0
2 77 78 0
-2 -78 0
-77 -78 0
-2 -77 79 0
2 -79 0
77 -79 0
78 79 80 0
-78 -80 0
-79 -80 0
76 -80 81 0
-76 -81 0
80 -81 0
17 82 83 0
-17 -83 0
-82 -83 0
-17 -82 84 0
17 -84 0
82 -84 0
83 84 85 0
-83 -85 0
-84 -85 0
79 85 86 0
-79 -86 0
-85 -86 0
-79 -85 87 0
79 -87 0
85 -87 0
86 87 88 0
-86 -88 0
-87 -88 0
81 88 89 0
-81 -89 0
-88 -89 0
23 29 90 0
-23 -90 0
-29 -90 0
90 30 91 0
-90 -91 0
-30 -91 0
89 91 92 0
-89 -92 0
-91 -92 0
-81 -88 93 0
81 -93 0
88 -93 0
92 93 94 0
-92 -94 0
-93 -94 0
80 88 95 0
-80 -95 0
-88 -95 0
-94 95 96 0
94 -96 0
-95 -96 0
-31 37 97 0
31 -97 0
-37 -97 0
97 38 98 0
-97 -98 0
-38 -98 0
87 84 99 0
-87 -99 0
-84 -99 0
15 100 101 0
-15 -101 0
-100 -101 0
-15 -100 102 0
15 -102 0
100 -102 0
101 102 103 0
-101 -103 0
-102 -103 0
-99 103 104 0
99 -104 0
-103 -104 0
99 -103 105 0
-99 -105 0
103 -105 0
104 105 106 0
-104 -106 0
-105 -106 0
95 -106 107 0
-95 -107 0
106 -107 0
-95 106 108 0
95 -108 0
-106 -108 0
107 108 109 0
-107 -109 0
-108 -109 0
-98 -109 110 0
98 -110 0
109 -110 0
96 110 111 0
-96 -111 0
-110 -111 0
98 109 112 0
-98 -112 0
-109 -112 0
111 112 113 0
-111 -113 0
-112 -113 0
-39 45 114 0
39 -114 0
-45 -114 0
114 46 115 0
-114 -115 0
-46 -115 0
105 102 116 0
-105 -116 0
-102 -116 0
13 117 118 0
-13 -118 0
-117 -118 0
-13 -117 119 0
13 -119 0
117 -119 0
118 119 120 0
-118 -120 0
-119 -120 0
-116 120 121 0
116 -121 0
-120 -121 0
116 -120 122 0
-116 -122 0
120 -122 0
121 122 123 0
-121 -123 0
-122 -123 0
108 -123 124 0
-108 -124 0
123 -124 0
-108 123 125 0
108 -125 0
-123 -125 0
124 125 126 0
-124 -126 0
-125 -126 0
-115 -126 127 0
115 -127 0
126 -127 0
113 127 128 0
-113 -128 0
-127 -128 0
115 126 129 0
-115 -129 0
-126 -129 0
128 129 130 0
-128 -130 0
-129 -130 0
-47 53 131 0
47 -131 0
-53 -131 0
131 54 132 0
-131 -132 0
-54 -132 0
122 119 133 0
-122 -133 0
-119 -133 0
11 134 135 0
-11 -135 0
-134 -135 0
-11 -134 136 0
11 -136 0
134 -136 0
135 136 137 0
-135 -137 0
-136 -137 0
-133 137 138 0
133 -138 0
-137 -138 0
133 -137 139 0
-133 -139 0
137 -139 0
138 139 140 0
-138 -140 0
-139 -140 0
125 -140 141 0
-125 -141 0
140 -141 0
-125 140 142 0
125 -142 0
-140 -142 0
141 142 143 0
-141 -143 0
-142 -143 0
-132 -143 144 0
132 -144 0
143 -144 0
130 144 145 0
-130 -145 0
-144 -145 0
132 143 146 0
-132 -146 0
-143 -146 0
145 146 147 0
-145 -147 0
-146 -147 0
-55 61 148 0
55 -148 0
-61 -148 0
148 62 149 0
-148 -149 0
-62 -149 0
139 136 150 0
-139 -150 0
-136 -150 0
9 151 152 0
-9 -152 0
-151 -152 0
-9 -151 153 0
9 -153 0
151 -153 0
152 153 154 0
-152 -154 0
-153 -154 0
-150 154 155 0
150 -155 0
-154 -155 0
150 -154 156 0
-150 -156 0
154 -156 0
155 156 157 0
-155 -157 0
-156 -157 0
142 -157 158 0
-142 -158 0
157 -158 0
-142 157 159 0
142 -159 0
-157 -159 0
158 159 160 0
-158 -160 0
-159 -160 0
-149 -160 161 0
149 -161 0
160 -161 0
147 161 162 0
-147 -162 0
-161 -162 0
149 160 163 0
-149 -163 0
-160 -163 0
162 163 164 0
-162 -164 0
-163 -164 0
-63 69 165 0
63 -165 0
-69 -165 0
165 70 166 0
-165 -166 0
-70 -166 0
156 153 167 0
-156 -167 0
-153 -167 0
6 168 169 0
-6 -169 0
-168 -169 0
-6 -168 170 0
6 -170 0
168 -170 0
169 170 171 0
-169 -171 0
-170 -171 0
-167 171 172 0
167 -172 0
-171 -172 0
167 -171 173 0
-167 -173 0
171 -173 0
172 173 174 0
-172 -174 0
-173 -174 0
159 -174 175 0
-159 -175 0
174 -175 0
-159 174 176 0
159 -176 0
-174 -176 0
175 176 177 0
-175 -177 0
-176 -177 0
-166 -177 178 0
166 -178 0
177 -178 0
164 178 179 0
-164 -179 0
-178 -179 0
166 177 180 0
-166 -180 0
-177 -180 0
179 180 181 0
-179 -181 0
-180 -181 0
-74 -181 182 0
74 -182 0
181 -182 0
-7 -183 184 0
7 -184 0
183 -184 0
7 183 185 0
-7 -185 0
-183 -185 0
184 185 186 0
-184 -186 0
-185 -186 0
173 170 187 0
-173 -187 0
-170 -187 0
-186 187 188 0
186 -188 0
-187 -188 0
186 -187 189 0
-186 -189 0
187 -189 0
188 189 190 0
-188 -190 0
-189 -190 0
-190 -176 191 0
190 -191 0
176 -191 0
-182 191 192 0
182 -192 0
-191 -192 0
190 176 193 0
-190 -193 0
-176 -193 0
193 182 194 0
-193 -194 0
-182 -194 0
192 194 195 0
-192 -195 0
-194 -195 0
74 181 196 0
-74 -196 0
-181 -196 0
-196 191 197 0
196 -197 0
-191 -197 0
195 197 198 0
-195 -198 0
-197 -198 0
-198 0
